'hugeuniform106'
150 75 75
150
149
149
145
145
143
137
136
136
135
133
131
129
128
126
124
123
123
121
120
120
119
112
109
107
105
101
99
99
99
95
93
91
91
90
89
87
80
79
78
77
77
75
74
74
74
71
69
69
65
63
60
59
56
52
51
50
47
37
36
35
33
29
27
26
16
15
15
11
7
5
5
4
4
1
